c read Graph
c width = 2
c time = 17 ms
c width = 2
c time = 4944 ms
s td 22 3 24
b 1 1 2 14
b 2 2 3 15
b 3 3 4 16
b 4 4 5 17
b 5 5 6 18
b 6 6 7 19
b 7 7 8 20
b 8 8 9 21
b 9 9 10 22
b 10 10 11 23
b 11 11 12 24
b 12 11 23 24
b 13 10 22 23
b 14 9 21 22
b 15 8 20 21
b 16 7 19 20
b 17 6 18 19
b 18 5 17 18
b 19 4 16 17
b 20 3 15 16
b 21 2 14 15
b 22 1 13 14
1 22
1 21
2 21
2 20
3 20
3 19
4 19
4 18
5 18
5 17
6 17
6 16
7 16
7 15
8 15
8 14
9 14
9 13
10 13
10 12
11 12
